p cnf 33 197
-2 -19 -41 -44 -45 -849 -1137 -1253 -1392 -1578 -1596 -1610 0
-19 -41 -44 -45 -849 -1137 -1253 -1392 -1578 -1594 -1596 -1610 0
-2 -19 -41 -44 -45 -849 -1104 -1137 -1392 -1578 -1596 -1600 -1610 0
-2 -19 -41 -44 -45 -849 -941 -1104 -1137 -1392 -1578 -1596 -1610 0
-2 -19 -41 -45 -938 -1101 -1392 -1578 -1609 0
-2 -19 -41 -45 -336 -1392 -1578 0
-2 -19 -41 -45 -1101 -1392 -1578 -1600 -1609 0
-45 -719 -800 0
-45 -344 -800 0
-45 -800 -1596 0
-45 -800 -1253 0
-19 -45 -800 0
-19 -20 -21 -45 -336 -589 -799 -802 -803 -1418 -1577 -1594 0
-19 -20 -21 -45 -318 -336 -589 -799 -802 -1418 -1577 0
-19 -45 -318 -339 -589 -802 -849 -941 -1104 -1577 -1596 0
-19 -44 -45 -318 -589 -802 -849 -941 -1104 -1137 -1577 -1596 0
-19 -44 -45 -318 -589 -802 -849 -1104 -1137 -1577 -1596 -1600 0
-19 -45 -318 -339 -589 -802 -849 -1104 -1577 -1596 -1600 0
-19 -44 -45 -318 -589 -802 -849 -1137 -1253 -1577 -1596 0
-19 -45 -318 -339 -589 -802 -849 -1253 -1577 -1596 0
-19 -20 -21 -45 -318 -589 -799 -802 -938 -1101 -1418 -1577 -1609 0
-19 -20 -21 -45 -318 -589 -799 -802 -1101 -1418 -1577 -1600 -1609 0
-19 -20 -45 -318 -802 -938 -1101 -1418 -1577 -1578 -1609 0
-19 -20 -45 -318 -802 -1101 -1418 -1577 -1578 -1600 -1609 0
-19 -20 -45 -318 -336 -802 -1418 -1577 -1578 0
-19 -20 -21 -45 -318 -589 -799 -938 -1101 -1392 -1418 -1609 0
-19 -20 -21 -45 -318 -589 -799 -1101 -1392 -1418 -1600 -1609 0
-2 -19 -21 -45 -318 -589 -799 -938 -1101 -1392 -1609 0
-2 -19 -21 -45 -318 -589 -799 -1101 -1392 -1600 -1609 0
-2 -19 -45 -318 -938 -1101 -1392 -1578 -1609 0
-2 -19 -45 -318 -1101 -1392 -1578 -1600 -1609 0
-2 -19 -45 -318 -802 -938 -1101 -1577 -1578 -1609 0
-2 -19 -45 -318 -802 -1101 -1577 -1578 -1600 -1609 0
-19 -20 -45 -318 -938 -1101 -1392 -1418 -1578 -1609 0
-19 -20 -45 -318 -1101 -1392 -1418 -1578 -1600 -1609 0
-2 -19 -21 -45 -318 -589 -799 -802 -938 -1101 -1577 -1609 0
-2 -19 -21 -45 -318 -589 -799 -802 -1101 -1577 -1600 -1609 0
-19 -20 -21 -45 -318 -336 -589 -799 -1392 -1418 0
-2 -19 -21 -45 -318 -336 -589 -799 -802 -1577 0
-2 -19 -21 -45 -318 -336 -589 -799 -1392 0
-2 -19 -45 -318 -336 -802 -1577 -1578 0
-19 -20 -45 -318 -336 -1392 -1418 -1578 0
-2 -19 -45 -318 -336 -1392 -1578 0
-19 -20 -21 -45 -589 -799 -802 -803 -938 -1101 -1418 -1577 -1594 -1609 0
-19 -20 -21 -41 -45 -589 -799 -802 -938 -1101 -1418 -1577 -1594 -1609 0
-19 -20 -21 -45 -589 -799 -802 -803 -1101 -1418 -1577 -1594 -1600 -1609 0
-19 -20 -21 -41 -45 -589 -799 -802 -1101 -1418 -1577 -1594 -1600 -1609 0
-19 -20 -45 -802 -803 -1101 -1418 -1577 -1578 -1594 -1600 -1609 0
-19 -20 -41 -45 -802 -1101 -1418 -1577 -1578 -1594 -1600 -1609 0
-19 -20 -45 -802 -803 -938 -1101 -1418 -1577 -1578 -1594 -1609 0
-19 -20 -41 -45 -802 -938 -1101 -1418 -1577 -1578 -1594 -1609 0
-2 -19 -45 -802 -803 -938 -1101 -1577 -1578 -1609 0
-2 -19 -41 -45 -802 -938 -1101 -1577 -1578 -1609 0
-2 -19 -45 -802 -803 -1101 -1577 -1578 -1600 -1609 0
-2 -19 -41 -45 -802 -1101 -1577 -1578 -1600 -1609 0
-2 -19 -21 -45 -589 -799 -802 -803 -1101 -1577 -1600 -1609 0
-2 -19 -21 -41 -45 -589 -799 -802 -1101 -1577 -1600 -1609 0
-2 -19 -21 -45 -589 -799 -802 -803 -938 -1101 -1577 -1609 0
-2 -19 -21 -41 -45 -589 -799 -802 -938 -1101 -1577 -1609 0
-19 -45 -339 -589 -802 -803 -849 -941 -1104 -1577 -1594 -1596 -1610 0
-19 -44 -45 -589 -802 -803 -849 -941 -1104 -1137 -1577 -1594 -1596 -1610 0
-19 -44 -45 -589 -802 -803 -849 -1137 -1253 -1577 -1594 -1596 -1610 0
-19 -45 -339 -589 -802 -803 -849 -1253 -1577 -1594 -1596 -1610 0
-19 -41 -44 -45 -589 -802 -849 -1137 -1253 -1577 -1594 -1596 -1610 0
-19 -41 -45 -339 -589 -802 -849 -1253 -1577 -1594 -1596 -1610 0
-19 -41 -44 -45 -589 -802 -849 -941 -1104 -1137 -1577 -1594 -1596 -1610 0
-19 -41 -45 -339 -589 -802 -849 -941 -1104 -1577 -1594 -1596 -1610 0
-19 -41 -44 -45 -589 -802 -849 -1104 -1137 -1577 -1594 -1596 -1600 -1610 0
-19 -41 -45 -339 -589 -802 -849 -1104 -1577 -1594 -1596 -1600 -1610 0
-19 -44 -45 -589 -802 -803 -849 -1104 -1137 -1577 -1594 -1596 -1600 -1610 0
-19 -45 -339 -589 -802 -803 -849 -1104 -1577 -1594 -1596 -1600 -1610 0
-19 -41 -44 -45 -802 -849 -941 -1104 -1137 -1577 -1578 -1594 -1596 -1610 0
-19 -41 -44 -45 -802 -849 -1137 -1253 -1577 -1578 -1594 -1596 -1610 0
-19 -41 -45 -339 -802 -849 -941 -1104 -1577 -1578 -1594 -1596 -1610 0
-19 -41 -45 -339 -802 -849 -1253 -1577 -1578 -1594 -1596 -1610 0
-19 -44 -45 -802 -803 -849 -941 -1104 -1137 -1577 -1578 -1594 -1596 -1610 0
-19 -44 -45 -318 -802 -849 -941 -1104 -1137 -1577 -1578 -1596 0
-19 -45 -318 -339 -802 -849 -941 -1104 -1577 -1578 -1596 0
-19 -44 -45 -318 -802 -849 -1137 -1253 -1577 -1578 -1596 0
-19 -45 -318 -339 -802 -849 -1253 -1577 -1578 -1596 0
-19 -45 -339 -802 -803 -849 -941 -1104 -1577 -1578 -1594 -1596 -1610 0
-19 -45 -339 -802 -803 -849 -1253 -1577 -1578 -1594 -1596 -1610 0
-19 -44 -45 -802 -803 -849 -1137 -1253 -1577 -1578 -1594 -1596 -1610 0
-19 -41 -44 -45 -802 -849 -1104 -1137 -1577 -1578 -1594 -1596 -1600 -1610 0
-19 -44 -45 -802 -803 -849 -1104 -1137 -1577 -1578 -1594 -1596 -1600 -1610 0
-19 -45 -339 -802 -803 -849 -1104 -1577 -1578 -1594 -1596 -1600 -1610 0
-19 -41 -45 -339 -802 -849 -1104 -1577 -1578 -1594 -1596 -1600 -1610 0
-19 -44 -45 -318 -802 -849 -1104 -1137 -1577 -1578 -1596 -1600 0
-19 -45 -318 -339 -802 -849 -1104 -1577 -1578 -1596 -1600 0
-2 -19 -21 -45 -336 -589 -799 -802 -803 -1577 0
-2 -19 -21 -41 -45 -336 -589 -799 -802 -1577 0
-2 -19 -41 -45 -336 -802 -1577 -1578 0
-2 -19 -45 -336 -802 -803 -1577 -1578 0
-2 -19 -41 -45 -339 -589 -802 -849 -941 -1104 -1577 -1596 -1610 0
-2 -19 -41 -45 -339 -589 -802 -849 -1253 -1577 -1596 -1610 0
-2 -19 -41 -44 -45 -589 -802 -849 -941 -1104 -1137 -1577 -1596 -1610 0
-2 -19 -41 -44 -45 -589 -802 -849 -1137 -1253 -1577 -1596 -1610 0
-2 -19 -44 -45 -589 -802 -803 -849 -941 -1104 -1137 -1577 -1596 -1610 0
-2 -19 -44 -45 -589 -802 -803 -849 -1104 -1137 -1577 -1596 -1600 -1610 0
-2 -19 -41 -44 -45 -589 -802 -849 -1104 -1137 -1577 -1596 -1600 -1610 0
-2 -19 -45 -339 -589 -802 -803 -849 -1104 -1577 -1596 -1600 -1610 0
-2 -19 -41 -45 -339 -589 -802 -849 -1104 -1577 -1596 -1600 -1610 0
-2 -19 -45 -339 -802 -803 -849 -1253 -1577 -1578 -1596 -1610 0
-2 -19 -41 -45 -339 -802 -849 -1253 -1577 -1578 -1596 -1610 0
-2 -19 -45 -339 -802 -803 -849 -941 -1104 -1577 -1578 -1596 -1610 0
-2 -19 -41 -45 -339 -802 -849 -941 -1104 -1577 -1578 -1596 -1610 0
-2 -19 -44 -45 -802 -803 -849 -941 -1104 -1137 -1577 -1578 -1596 -1610 0
-2 -19 -41 -44 -45 -802 -849 -941 -1104 -1137 -1577 -1578 -1596 -1610 0
-2 -19 -44 -45 -802 -803 -849 -1137 -1253 -1577 -1578 -1596 -1610 0
-2 -19 -41 -44 -45 -802 -849 -1137 -1253 -1577 -1578 -1596 -1610 0
-2 -19 -45 -339 -589 -802 -803 -849 -941 -1104 -1577 -1596 -1610 0
-2 -19 -44 -45 -589 -802 -803 -849 -1137 -1253 -1577 -1596 -1610 0
-2 -19 -45 -339 -589 -802 -803 -849 -1253 -1577 -1596 -1610 0
-2 -19 -44 -45 -802 -803 -849 -1104 -1137 -1577 -1578 -1596 -1600 -1610 0
-2 -19 -41 -44 -45 -802 -849 -1104 -1137 -1577 -1578 -1596 -1600 -1610 0
-2 -19 -45 -339 -802 -803 -849 -1104 -1577 -1578 -1596 -1600 -1610 0
-2 -19 -41 -45 -339 -802 -849 -1104 -1577 -1578 -1596 -1600 -1610 0
-19 -20 -41 -45 -336 -802 -1418 -1577 -1578 -1594 0
-19 -20 -45 -336 -802 -803 -1418 -1577 -1578 -1594 0
-19 -20 -21 -41 -45 -336 -589 -799 -802 -1418 -1577 -1594 0
-2 -19 -44 -45 -589 -803 -849 -941 -1104 -1137 -1392 -1596 -1610 0
-2 -19 -41 -44 -45 -589 -849 -941 -1104 -1137 -1392 -1596 -1610 0
-2 -19 -45 -803 -938 -1101 -1392 -1578 -1609 0
-2 -19 -45 -336 -803 -1392 -1578 0
-19 -20 -41 -45 -336 -1392 -1418 -1578 -1594 0
-19 -20 -45 -336 -803 -1392 -1418 -1578 -1594 0
-19 -20 -41 -45 -938 -1101 -1392 -1418 -1578 -1594 -1609 0
-19 -20 -45 -803 -938 -1101 -1392 -1418 -1578 -1594 -1609 0
-19 -20 -21 -41 -45 -589 -799 -938 -1101 -1392 -1418 -1594 -1609 0
-19 -20 -21 -45 -589 -799 -803 -938 -1101 -1392 -1418 -1594 -1609 0
-19 -20 -21 -41 -45 -336 -589 -799 -1392 -1418 -1594 0
-19 -20 -21 -45 -336 -589 -799 -803 -1392 -1418 -1594 0
-2 -19 -21 -41 -45 -336 -589 -799 -1392 0
-2 -19 -21 -45 -336 -589 -799 -803 -1392 0
-2 -19 -21 -41 -45 -589 -799 -938 -1101 -1392 -1609 0
-2 -19 -21 -45 -589 -799 -803 -938 -1101 -1392 -1609 0
-19 -20 -21 -41 -45 -589 -799 -1101 -1392 -1418 -1594 -1600 -1609 0
-19 -20 -21 -45 -589 -799 -803 -1101 -1392 -1418 -1594 -1600 -1609 0
-19 -20 -41 -45 -1101 -1392 -1418 -1578 -1594 -1600 -1609 0
-19 -20 -45 -803 -1101 -1392 -1418 -1578 -1594 -1600 -1609 0
-19 -41 -45 -339 -589 -849 -1253 -1392 -1594 -1596 -1610 0
-19 -41 -45 -339 -589 -849 -941 -1104 -1392 -1594 -1596 -1610 0
-19 -41 -44 -45 -589 -849 -941 -1104 -1137 -1392 -1594 -1596 -1610 0
-19 -41 -44 -45 -589 -849 -1137 -1253 -1392 -1594 -1596 -1610 0
-19 -44 -45 -589 -803 -849 -941 -1104 -1137 -1392 -1594 -1596 -1610 0
-19 -45 -339 -589 -803 -849 -941 -1104 -1392 -1594 -1596 -1610 0
-19 -44 -45 -589 -803 -849 -1137 -1253 -1392 -1594 -1596 -1610 0
-19 -45 -339 -589 -803 -849 -1253 -1392 -1594 -1596 -1610 0
-19 -44 -45 -318 -589 -849 -1137 -1253 -1392 -1596 0
-19 -45 -318 -339 -589 -849 -1253 -1392 -1596 0
-19 -44 -45 -318 -589 -849 -941 -1104 -1137 -1392 -1596 0
-19 -45 -318 -339 -589 -849 -941 -1104 -1392 -1596 0
-2 -19 -45 -339 -589 -803 -849 -941 -1104 -1392 -1596 -1610 0
-2 -19 -41 -45 -339 -589 -849 -941 -1104 -1392 -1596 -1610 0
-2 -19 -45 -339 -589 -803 -849 -1253 -1392 -1596 -1610 0
-2 -19 -44 -45 -589 -803 -849 -1137 -1253 -1392 -1596 -1610 0
-2 -19 -41 -44 -45 -589 -849 -1137 -1253 -1392 -1596 -1610 0
-2 -19 -41 -45 -339 -589 -849 -1253 -1392 -1596 -1610 0
-19 -45 -339 -589 -803 -849 -1104 -1392 -1594 -1596 -1600 -1610 0
-19 -45 -318 -339 -589 -849 -1104 -1392 -1596 -1600 0
-19 -44 -45 -318 -589 -849 -1104 -1137 -1392 -1596 -1600 0
-19 -44 -45 -589 -803 -849 -1104 -1137 -1392 -1594 -1596 -1600 -1610 0
-2 -19 -44 -45 -589 -803 -849 -1104 -1137 -1392 -1596 -1600 -1610 0
-19 -41 -44 -45 -589 -849 -1104 -1137 -1392 -1594 -1596 -1600 -1610 0
-2 -19 -41 -44 -45 -589 -849 -1104 -1137 -1392 -1596 -1600 -1610 0
-19 -41 -45 -339 -589 -849 -1104 -1392 -1594 -1596 -1600 -1610 0
-2 -19 -41 -45 -339 -589 -849 -1104 -1392 -1596 -1600 -1610 0
-2 -19 -45 -339 -589 -803 -849 -1104 -1392 -1596 -1600 -1610 0
-2 -19 -45 -803 -1101 -1392 -1578 -1600 -1609 0
-2 -19 -21 -41 -45 -589 -799 -1101 -1392 -1600 -1609 0
-2 -19 -21 -45 -589 -799 -803 -1101 -1392 -1600 -1609 0
-19 -44 -45 -803 -849 -1137 -1253 -1392 -1578 -1594 -1596 -1610 0
-19 -44 -45 -803 -849 -941 -1104 -1137 -1392 -1578 -1594 -1596 -1610 0
-19 -41 -44 -45 -849 -941 -1104 -1137 -1392 -1578 -1594 -1596 -1610 0
-2 -19 -41 -45 -339 -849 -941 -1104 -1392 -1578 -1596 -1610 0
-2 -19 -45 -339 -803 -849 -941 -1104 -1392 -1578 -1596 -1610 0
-2 -19 -45 -339 -803 -849 -1253 -1392 -1578 -1596 -1610 0
-2 -19 -41 -45 -339 -849 -1253 -1392 -1578 -1596 -1610 0
-2 -19 -44 -45 -803 -849 -941 -1104 -1137 -1392 -1578 -1596 -1610 0
-19 -45 -318 -339 -849 -941 -1104 -1392 -1578 -1596 0
-19 -44 -45 -318 -849 -941 -1104 -1137 -1392 -1578 -1596 0
-19 -44 -45 -318 -849 -1137 -1253 -1392 -1578 -1596 0
-19 -45 -318 -339 -849 -1253 -1392 -1578 -1596 0
-19 -41 -45 -339 -849 -1253 -1392 -1578 -1594 -1596 -1610 0
-19 -45 -339 -803 -849 -1253 -1392 -1578 -1594 -1596 -1610 0
-2 -19 -44 -45 -803 -849 -1137 -1253 -1392 -1578 -1596 -1610 0
-19 -44 -45 -318 -849 -1104 -1137 -1392 -1578 -1596 -1600 0
-19 -45 -318 -339 -849 -1104 -1392 -1578 -1596 -1600 0
-19 -45 -339 -803 -849 -941 -1104 -1392 -1578 -1594 -1596 -1610 0
-19 -41 -45 -339 -849 -941 -1104 -1392 -1578 -1594 -1596 -1610 0
-19 -41 -45 -339 -849 -1104 -1392 -1578 -1594 -1596 -1600 -1610 0
-19 -45 -339 -803 -849 -1104 -1392 -1578 -1594 -1596 -1600 -1610 0
-19 -44 -45 -803 -849 -1104 -1137 -1392 -1578 -1594 -1596 -1600 -1610 0
-19 -41 -44 -45 -849 -1104 -1137 -1392 -1578 -1594 -1596 -1600 -1610 0
-2 -19 -41 -45 -339 -849 -1104 -1392 -1578 -1596 -1600 -1610 0
-2 -19 -44 -45 -803 -849 -1104 -1137 -1392 -1578 -1596 -1600 -1610 0
-2 -19 -45 -339 -803 -849 -1104 -1392 -1578 -1596 -1600 -1610 0
